c Result of efficient AIG-to-CNF conversion using package CNF
p cnf 433 1523
2 3 -248 0
2 428 3 -14 0
-2 -3 0
-2 -428 248 0
-2 14 248 0
-3 4 10 12 13 0
3 -13 0
3 -4 0
3 -12 0
3 -10 0
-4 425 426 5 7 0
4 -425 0
4 -7 0
4 -5 0
4 -426 0
-5 417 423 424 6 0
5 -6 0
5 -424 0
5 -417 0
5 -423 0
-6 421 422 427 0
6 -421 0
6 -427 0
6 -422 0
-7 413 414 8 9 0
7 -413 0
7 -9 0
7 -8 0
7 -414 0
-8 418 419 420 0
8 -418 0
8 -420 0
8 -419 0
-9 409 410 415 416 0
9 -416 0
9 -415 0
9 -409 0
9 -410 0
-10 407 411 412 11 0
10 -11 0
10 -412 0
10 -407 0
10 -411 0
-11 405 406 0
11 -405 0
11 -406 0
-12 401 408 0
12 -401 0
12 -408 0
-13 402 403 404 0
13 -402 0
13 -404 0
13 -403 0
-14 15 208 235 240 0
14 -240 0
14 -15 0
14 -235 0
14 -208 0
-15 16 187 189 197 0
-15 16 -187 -189 197 0
15 -197 0
15 -187 189 0
15 -16 0
15 187 -189 0
-16 -385 17 131 0
-16 17 131 145 0
16 -17 0
16 -131 0
16 385 -145 0
-17 123 125 130 0
-17 -18 -125 -130 0
-17 -18 125 130 0
-17 123 -125 -130 0
17 125 -130 0
17 -125 130 0
17 18 -123 0
18 429 -19 0
-18 -429 0
-18 19 0
19 430 -20 0
19 -430 -112 0
-19 -430 112 0
-19 430 20 0
20 431 -21 0
20 -431 -79 0
-20 -431 79 0
-20 431 21 0
21 432 -22 0
21 -432 -50 0
-21 -432 50 0
-21 432 22 0
22 -428 3 -38 0
22 428 3 -23 0
-22 -3 0
-22 -428 38 0
-22 428 23 0
-23 429 24 0
-23 -429 31 0
23 -429 -31 0
23 429 -24 0
-24 430 28 0
-24 -430 25 0
24 -430 -25 0
24 430 -28 0
25 431 -26 0
25 -431 -27 0
-25 -431 27 0
-25 431 26 0
26 -392 432 0
26 -391 -432 0
-26 392 432 0
-26 391 -432 0
27 -390 432 0
27 -389 -432 0
-27 390 432 0
-27 389 -432 0
28 431 -29 0
28 -431 -30 0
-28 -431 30 0
-28 431 29 0
29 -396 432 0
29 -395 -432 0
-29 396 432 0
-29 395 -432 0
30 -394 432 0
30 -393 -432 0
-30 394 432 0
-30 393 -432 0
31 430 -32 0
31 -430 -35 0
-31 -430 35 0
-31 430 32 0
32 431 -33 0
32 -431 -34 0
-32 -431 34 0
-32 431 33 0
33 -388 432 0
33 -387 -432 0
-33 388 432 0
-33 387 -432 0
34 -386 432 0
34 -385 -432 0
-34 386 432 0
-34 385 -432 0
35 431 -36 0
35 -431 -37 0
-35 -431 37 0
-35 431 36 0
36 -384 432 0
36 -383 -432 0
-36 384 432 0
-36 383 -432 0
37 -382 432 0
37 -381 -432 0
-37 382 432 0
-37 381 -432 0
38 429 -39 0
38 -429 -46 0
-38 -429 46 0
-38 429 39 0
39 430 -40 0
39 -430 -43 0
-39 -430 43 0
-39 430 40 0
40 431 -41 0
40 -431 -42 0
-40 -431 42 0
-40 431 41 0
41 -380 432 0
41 -379 -432 0
-41 380 432 0
-41 379 -432 0
42 -378 432 0
42 -377 -432 0
-42 378 432 0
-42 377 -432 0
43 431 -44 0
43 -431 -45 0
-43 -431 45 0
-43 431 44 0
44 -376 432 0
44 -375 -432 0
-44 376 432 0
-44 375 -432 0
45 -374 432 0
45 -373 -432 0
-45 374 432 0
-45 373 -432 0
46 430 -47 0
-46 -430 0
-46 47 0
47 431 -48 0
47 -431 -49 0
-47 -431 49 0
-47 431 48 0
48 -372 432 0
48 -371 -432 0
-48 372 432 0
-48 371 -432 0
49 -370 432 0
49 -369 -432 0
-49 370 432 0
-49 369 -432 0
50 -428 3 -66 0
50 428 3 -51 0
-50 -3 0
-50 -428 66 0
-50 428 51 0
-51 429 52 0
-51 -429 59 0
51 -429 -59 0
51 429 -52 0
-52 430 53 0
-52 -430 56 0
52 -430 -56 0
52 430 -53 0
-53 431 55 0
-53 -431 54 0
53 -431 -54 0
53 431 -55 0
54 -395 432 0
54 -394 -432 0
-54 395 432 0
-54 394 -432 0
55 -397 432 0
55 -396 -432 0
-55 397 432 0
-55 396 -432 0
56 431 -57 0
56 -431 -58 0
-56 -431 58 0
-56 431 57 0
57 -393 432 0
57 -392 -432 0
-57 393 432 0
-57 392 -432 0
58 -391 432 0
58 -390 -432 0
-58 391 432 0
-58 390 -432 0
59 430 -60 0
59 -430 -63 0
-59 -430 63 0
-59 430 60 0
60 431 -61 0
60 -431 -62 0
-60 -431 62 0
-60 431 61 0
61 -389 432 0
61 -388 -432 0
-61 389 432 0
-61 388 -432 0
62 -387 432 0
62 -386 -432 0
-62 387 432 0
-62 386 -432 0
63 431 -64 0
63 -431 -65 0
-63 -431 65 0
-63 431 64 0
64 -385 432 0
64 -384 -432 0
-64 385 432 0
-64 384 -432 0
65 -383 432 0
65 -382 -432 0
-65 383 432 0
-65 382 -432 0
66 429 -67 0
66 -429 -74 0
-66 -429 74 0
-66 429 67 0
67 430 -68 0
67 -430 -71 0
-67 -430 71 0
-67 430 68 0
68 431 -69 0
68 -431 -70 0
-68 -431 70 0
-68 431 69 0
69 -381 432 0
69 -380 -432 0
-69 381 432 0
-69 380 -432 0
70 -379 432 0
70 -378 -432 0
-70 379 432 0
-70 378 -432 0
71 431 -72 0
71 -431 -73 0
-71 -431 73 0
-71 431 72 0
72 -377 432 0
72 -376 -432 0
-72 377 432 0
-72 376 -432 0
73 -375 432 0
73 -374 -432 0
-73 375 432 0
-73 374 -432 0
74 430 -75 0
74 -430 -78 0
-74 -430 78 0
-74 430 75 0
75 431 -76 0
75 -431 -77 0
-75 -431 77 0
-75 431 76 0
76 -373 432 0
76 -372 -432 0
-76 373 432 0
-76 372 -432 0
77 -371 432 0
77 -370 -432 0
-77 371 432 0
-77 370 -432 0
78 -369 431 432 0
-78 369 0
-78 -432 0
-78 -431 0
79 432 -80 0
79 -432 -96 0
-79 -432 96 0
-79 432 80 0
80 -428 3 -89 0
80 428 3 -81 0
-80 -3 0
-80 -428 89 0
-80 428 81 0
-81 429 82 0
-81 -429 86 0
81 -429 -86 0
81 429 -82 0
-82 430 83 0
-82 -430 85 0
82 -430 -85 0
82 430 -83 0
-83 431 84 0
-83 -431 29 0
83 -431 -29 0
83 431 -84 0
84 -398 432 0
84 -397 -432 0
-84 398 432 0
-84 397 -432 0
85 -431 -26 0
85 431 -30 0
-85 431 30 0
-85 -431 26 0
86 430 -87 0
86 -430 -88 0
-86 -430 88 0
-86 430 87 0
87 431 -27 0
87 -431 -33 0
-87 -431 33 0
-87 431 27 0
88 431 -34 0
88 -431 -36 0
-88 -431 36 0
-88 431 34 0
89 429 -90 0
89 -429 -93 0
-89 -429 93 0
-89 429 90 0
90 430 -91 0
90 -430 -92 0
-90 -430 92 0
-90 430 91 0
91 431 -37 0
91 -431 -41 0
-91 -431 41 0
-91 431 37 0
92 431 -42 0
92 -431 -44 0
-92 -431 44 0
-92 431 42 0
93 430 -94 0
93 -430 -95 0
-93 -430 95 0
-93 430 94 0
94 431 -45 0
94 -431 -48 0
-94 -431 48 0
-94 431 45 0
95 -369 431 -432 0
95 -370 431 432 0
-95 -431 0
-95 369 -432 0
-95 370 432 0
96 -428 3 -105 0
96 428 3 -97 0
-96 -3 0
-96 -428 105 0
-96 428 97 0
-97 429 98 0
-97 -429 102 0
97 -429 -102 0
97 429 -98 0
-98 430 99 0
-98 -430 101 0
98 -430 -101 0
98 430 -99 0
-99 431 100 0
-99 -431 55 0
99 -431 -55 0
99 431 -100 0
100 -399 432 0
100 -398 -432 0
-100 399 432 0
-100 398 -432 0
101 431 -54 0
101 -431 -57 0
-101 -431 57 0
-101 431 54 0
102 430 -103 0
102 -430 -104 0
-102 -430 104 0
-102 430 103 0
103 431 -58 0
103 -431 -61 0
-103 -431 61 0
-103 431 58 0
104 431 -62 0
104 -431 -64 0
-104 -431 64 0
-104 431 62 0
105 429 -106 0
105 -429 -109 0
-105 -429 109 0
-105 429 106 0
106 430 -107 0
106 -430 -108 0
-106 -430 108 0
-106 430 107 0
107 431 -65 0
107 -431 -69 0
-107 -431 69 0
-107 431 65 0
108 431 -70 0
108 -431 -72 0
-108 -431 72 0
-108 431 70 0
109 430 -110 0
109 -430 -111 0
-109 -430 111 0
-109 430 110 0
110 431 -73 0
110 -431 -76 0
-110 -431 76 0
-110 431 73 0
111 431 -77 0
111 -369 -431 432 0
-111 431 77 0
-111 -431 -432 0
-111 369 -431 0
112 431 -113 0
-112 -431 0
-112 113 0
113 432 -114 0
-113 -432 0
-113 114 0
114 -428 3 -120 0
114 428 3 -115 0
-114 -3 0
-114 -428 120 0
-114 428 115 0
-115 429 116 0
-115 -429 119 0
115 -429 -119 0
115 429 -116 0
-116 -430 28 0
-116 430 117 0
116 -430 -28 0
116 430 -117 0
-117 431 118 0
-117 -431 84 0
117 -431 -84 0
117 431 -118 0
118 -400 432 0
118 -399 -432 0
-118 400 432 0
-118 399 -432 0
119 430 -25 0
119 -430 -32 0
-119 -430 32 0
-119 430 25 0
120 429 -121 0
120 -429 -122 0
-120 -429 122 0
-120 429 121 0
121 430 -35 0
121 -430 -40 0
-121 -430 40 0
-121 430 35 0
122 430 -43 0
122 -430 -47 0
-122 -430 47 0
-122 430 43 0
123 -396 124 0
-123 396 0
-123 -124 0
-124 429 430 0
-124 429 431 432 0
124 -429 0
124 -430 -431 0
124 -430 -432 0
125 429 -126 0
-125 -429 0
-125 126 0
126 430 -127 0
-126 -430 0
-126 127 0
127 431 -128 0
127 -431 -129 0
-127 -431 129 0
-127 431 128 0
128 432 -50 0
128 -432 -80 0
-128 -432 80 0
-128 432 50 0
129 432 -96 0
129 -432 -114 0
-129 -432 114 0
-129 432 96 0
130 -397 429 430 0
-130 397 0
-130 -430 0
-130 -429 0
131 -132 144 0
-131 132 0
-131 -144 0
132 429 -133 0
-132 -429 0
-132 133 0
133 430 -134 0
133 -430 -143 0
-133 -430 143 0
-133 430 134 0
134 -431 -128 0
134 431 -135 0
-134 431 135 0
-134 -431 128 0
135 -432 -22 0
135 432 -136 0
-135 432 136 0
-135 -432 22 0
136 -428 3 -140 0
136 428 3 -137 0
-136 -3 0
-136 -428 140 0
-136 428 137 0
-137 429 138 0
-137 -429 139 0
137 -429 -139 0
137 429 -138 0
-138 -430 103 0
-138 430 101 0
138 430 -101 0
138 -430 -103 0
139 430 -104 0
139 -430 -107 0
-139 -430 107 0
-139 430 104 0
140 429 -141 0
140 -429 -142 0
-140 -429 142 0
-140 429 141 0
141 430 -108 0
141 -430 -110 0
-141 -430 110 0
-141 430 108 0
142 430 -111 0
-142 -430 0
-142 111 0
143 431 -129 0
-143 -431 0
-143 129 0
144 -395 429 431 0
144 -395 429 430 0
-144 395 0
-144 -429 0
-144 -430 -431 0
145 429 -146 0
145 -429 -176 0
-145 -429 176 0
-145 429 146 0
146 430 -147 0
146 -430 -165 0
-146 -430 165 0
-146 430 147 0
147 431 -148 0
147 -431 -160 0
-147 -431 160 0
-147 431 148 0
148 432 -149 0
148 -432 -155 0
-148 -432 155 0
-148 432 149 0
149 3 -152 0
149 3 -150 -151 0
-149 -3 0
-149 150 152 0
-149 151 152 0
150 -369 430 431 432 0
-150 -432 0
-150 -431 0
-150 369 0
-150 -430 0
151 -428 429 0
-151 428 0
-151 -429 0
152 428 429 -154 0
152 428 -429 -153 0
-152 -428 0
-152 -429 153 0
-152 429 154 0
153 430 -71 0
153 -430 -75 0
-153 -430 75 0
-153 430 71 0
154 430 -63 0
154 -430 -68 0
-154 -430 68 0
-154 430 63 0
155 3 -157 0
155 3 -151 -156 0
-155 -3 0
-155 151 157 0
-155 156 157 0
156 430 -95 0
-156 -430 0
-156 95 0
157 428 429 -159 0
157 428 -429 -158 0
-157 -428 0
-157 -429 158 0
-157 429 159 0
158 430 -92 0
158 -430 -94 0
-158 -430 94 0
-158 430 92 0
159 430 -88 0
159 -430 -91 0
-159 -430 91 0
-159 430 88 0
160 432 -161 0
160 -432 -163 0
-160 -432 163 0
-160 432 161 0
161 3 -162 0
161 3 -142 -151 0
-161 -3 0
-161 142 162 0
-161 151 162 0
162 428 -429 -141 0
162 428 429 -139 0
-162 -428 0
-162 -429 141 0
-162 429 139 0
163 3 -164 0
163 3 -46 -151 0
-163 -3 0
-163 46 164 0
-163 151 164 0
164 428 -429 -39 0
164 428 429 -31 0
-164 -428 0
-164 -429 39 0
-164 429 31 0
165 431 -166 0
165 -431 -171 0
-165 -431 171 0
-165 431 166 0
166 432 -167 0
166 -432 -169 0
-166 -432 169 0
-166 432 167 0
167 3 -168 0
167 3 -74 -151 0
-167 -3 0
-167 74 168 0
-167 151 168 0
168 428 -429 -67 0
168 428 429 -59 0
-168 -428 0
-168 -429 67 0
-168 429 59 0
169 3 -170 0
169 3 -93 -151 0
-169 -3 0
-169 93 170 0
-169 151 170 0
170 428 -429 -90 0
170 428 429 -86 0
-170 -428 0
-170 -429 90 0
-170 429 86 0
171 432 -172 0
171 -432 -174 0
-171 -432 174 0
-171 432 172 0
172 3 -173 0
172 3 -109 -151 0
-172 -3 0
-172 109 173 0
-172 151 173 0
173 428 -429 -106 0
173 428 429 -102 0
-173 -428 0
-173 -429 106 0
-173 429 102 0
174 3 -175 0
174 3 -122 -151 0
-174 -3 0
-174 122 175 0
-174 151 175 0
175 428 -429 -121 0
175 428 429 -119 0
-175 -428 0
-175 -429 121 0
-175 429 119 0
176 -430 -127 0
176 430 -177 0
-176 430 177 0
-176 -430 127 0
177 -431 -135 0
177 431 -178 0
-177 431 178 0
-177 -431 135 0
178 432 -179 0
178 -432 -183 0
-178 -432 183 0
-178 432 179 0
179 -428 3 -182 0
179 428 3 -180 0
-179 -3 0
-179 -428 182 0
-179 428 180 0
-180 -429 154 0
-180 429 181 0
180 -429 -154 0
180 429 -181 0
-181 -430 60 0
-181 430 56 0
181 430 -56 0
181 -430 -60 0
182 -429 -150 0
182 429 -153 0
-182 429 153 0
-182 -429 150 0
183 -428 3 -186 0
183 428 3 -184 0
-183 -3 0
-183 -428 186 0
-183 428 184 0
-184 -429 159 0
-184 429 185 0
184 -429 -159 0
184 429 -185 0
-185 -430 87 0
-185 430 85 0
185 430 -85 0
185 -430 -87 0
186 -429 -156 0
186 429 -158 0
-186 429 158 0
-186 -429 156 0
187 -388 188 0
-187 388 0
-187 -188 0
188 -429 -430 -432 0
188 -429 -430 -431 0
-188 429 0
-188 430 0
-188 431 432 0
189 -429 -19 0
189 429 -190 0
-189 429 190 0
-189 -429 19 0
190 430 -191 0
190 -430 -194 0
-190 -430 194 0
-190 430 191 0
191 431 -192 0
191 -431 -193 0
-191 -431 193 0
-191 431 192 0
192 432 -163 0
192 -432 -167 0
-192 -432 167 0
-192 432 163 0
193 432 -169 0
193 -432 -172 0
-193 -432 172 0
-193 432 169 0
194 431 -195 0
194 -431 -196 0
-194 -431 196 0
-194 431 195 0
195 432 -174 0
195 -432 -179 0
-195 -432 179 0
-195 432 174 0
196 -432 -136 0
196 432 -183 0
-196 432 183 0
-196 -432 136 0
-197 -198 -199 201 0
-197 198 199 201 0
197 -201 0
197 -198 199 0
197 198 -199 0
198 -389 430 0
198 -389 429 0
-198 389 0
-198 -429 -430 0
199 -429 -126 0
199 429 -200 0
-199 429 200 0
-199 -429 126 0
200 430 -165 0
200 -430 -177 0
-200 -430 177 0
-200 430 165 0
-201 385 -202 -206 0
-201 -145 202 206 0
-201 385 202 206 0
-201 -145 -202 -206 0
201 202 -206 0
201 -202 206 0
201 -385 145 0
202 429 -203 0
-202 -429 0
-202 203 0
203 430 -204 0
203 -430 -205 0
-203 -430 205 0
-203 430 204 0
204 -431 -21 0
204 431 -196 0
-204 431 196 0
-204 -431 21 0
205 431 -79 0
205 -431 -113 0
-205 -431 113 0
-205 431 79 0
206 -394 207 0
-206 394 0
-206 -207 0
-207 429 431 0
-207 429 430 0
-207 429 432 0
207 -429 0
207 -430 -431 -432 0
-208 209 211 214 222 0
-208 -209 -211 214 222 0
208 -222 0
208 -209 211 0
208 -214 0
208 209 -211 0
209 -392 210 0
-209 392 0
-209 -210 0
210 -429 -430 0
210 -429 -432 0
210 -429 -431 0
-210 429 0
-210 430 431 432 0
211 429 -212 0
211 -429 -213 0
-211 -429 213 0
-211 429 212 0
212 -430 -20 0
212 430 -194 0
-212 430 194 0
-212 -430 20 0
213 430 -112 0
-213 -430 0
-213 112 0
-214 -123 215 0
-214 18 215 0
214 -215 0
214 -18 123 0
-215 216 217 -219 -221 0
-215 -216 -217 -219 -221 0
-215 216 217 219 221 0
-215 -216 -217 219 221 0
215 216 -217 0
215 -216 217 0
215 219 -221 0
215 -219 221 0
216 429 -213 0
-216 -429 0
-216 213 0
217 -400 218 0
-217 400 0
-217 -218 0
-218 429 430 431 432 0
218 -432 0
218 -431 0
218 -429 0
218 -430 0
219 429 -220 0
-219 -429 0
-219 220 0
220 430 -143 0
-220 -430 0
-220 143 0
221 -399 429 430 431 0
-221 -431 0
-221 -430 0
-221 399 0
-221 -429 0
-222 223 224 -228 -230 0
-222 -223 -224 -228 -230 0
-222 223 224 228 230 0
-222 -223 -224 228 230 0
222 223 -224 0
222 -223 224 0
222 228 -230 0
222 -228 230 0
223 -387 431 0
223 -387 429 0
223 -387 430 0
-223 387 0
-223 -429 -430 -431 0
224 -429 -133 0
224 429 -225 0
-224 429 225 0
-224 -429 133 0
225 430 -226 0
225 -430 -227 0
-225 -430 227 0
-225 430 226 0
226 431 -160 0
226 -431 -166 0
-226 -431 166 0
-226 431 160 0
227 431 -171 0
227 -431 -178 0
-227 -431 178 0
-227 431 171 0
228 -386 229 0
-228 386 0
-228 -229 0
229 -429 -430 -431 -432 0
-229 432 0
-229 429 0
-229 431 0
-229 430 0
230 -429 -203 0
230 429 -231 0
-230 429 231 0
-230 -429 203 0
231 430 -232 0
231 -430 -234 0
-231 -430 234 0
-231 430 232 0
232 -431 -192 0
232 431 -233 0
-232 431 233 0
-232 -431 192 0
233 432 -155 0
233 -432 -161 0
-233 -432 161 0
-233 432 155 0
234 431 -193 0
234 -431 -195 0
-234 -431 195 0
-234 431 193 0
-235 144 236 238 0
-235 -132 -236 -238 0
-235 -132 236 238 0
-235 144 -236 -238 0
235 236 -238 0
235 -236 238 0
235 132 -144 0
236 429 -237 0
-236 -429 0
-236 237 0
237 430 -205 0
-237 -430 0
-237 205 0
238 -398 239 0
-238 398 0
-238 -239 0
-239 429 430 432 0
-239 429 430 431 0
239 -429 0
239 -430 0
239 -431 -432 0
-240 241 243 -245 -246 0
-240 -241 -243 -245 -246 0
-240 241 243 245 246 0
-240 -241 -243 245 246 0
240 241 -243 0
240 -241 243 0
240 245 -246 0
240 -245 246 0
241 -390 242 0
-241 390 0
-241 -242 0
242 -429 -430 0
242 -429 -431 -432 0
-242 429 0
-242 430 432 0
-242 430 431 0
243 -429 -237 0
243 429 -244 0
-243 429 244 0
-243 -429 237 0
244 -430 -204 0
244 430 -234 0
-244 430 234 0
-244 -430 204 0
245 -391 429 0
245 -391 430 431 0
-245 391 0
-245 -429 -430 0
-245 -429 -431 0
246 -429 -220 0
246 429 -247 0
-246 429 247 0
-246 -429 220 0
247 -430 -134 0
247 430 -227 0
-247 430 227 0
-247 -430 134 0
-248 249 319 343 354 0
248 -354 0
248 -249 0
248 -343 0
248 -319 0
-249 250 276 291 296 0
249 -296 0
249 -291 0
249 -250 0
249 -276 0
250 -375 428 252 0
250 -375 251 252 0
-250 375 0
-250 -252 0
-250 -428 -251 0
251 -429 -430 0
251 -429 -431 0
-251 429 0
-251 430 431 0
252 -428 -246 0
252 428 -253 0
-252 428 253 0
-252 -428 246 0
253 429 -254 0
253 -429 -271 0
-253 -429 271 0
-253 429 254 0
254 430 -255 0
254 -430 -264 0
-254 -430 264 0
-254 430 255 0
255 431 -256 0
255 -431 -261 0
-255 -431 261 0
-255 431 256 0
256 432 -257 0
256 -432 -260 0
-256 -432 260 0
-256 432 257 0
257 -109 258 0
-257 109 0
-257 -258 0
-258 429 259 0
258 -429 0
258 -259 0
-259 428 3 0
259 -428 0
259 -3 0
260 -122 258 0
-260 122 0
-260 -258 0
261 432 -262 0
261 -432 -263 0
-261 -432 263 0
-261 432 262 0
262 -182 259 0
-262 182 0
-262 -259 0
263 -186 259 0
-263 186 0
-263 -259 0
264 431 -265 0
264 -431 -268 0
-264 -431 268 0
-264 431 265 0
265 432 -266 0
265 -432 -267 0
-265 -432 267 0
-265 432 266 0
266 -140 259 0
-266 140 0
-266 -259 0
267 -38 259 0
-267 38 0
-267 -259 0
268 432 -269 0
268 -432 -270 0
-268 -432 270 0
-268 432 269 0
269 -66 259 0
-269 66 0
-269 -259 0
270 -89 259 0
-270 89 0
-270 -259 0
271 -430 -226 0
271 430 -272 0
-271 430 272 0
-271 -430 226 0
272 -431 -148 0
272 431 -273 0
-272 431 273 0
-272 -431 148 0
273 432 -274 0
273 -432 -275 0
-273 -432 275 0
-273 432 274 0
274 -105 259 0
-274 105 0
-274 -259 0
275 -120 259 0
-275 120 0
-275 -259 0
276 -374 428 277 0
276 -374 242 277 0
-276 374 0
-276 -277 0
-276 -428 -242 0
277 -428 -243 0
277 428 -278 0
-277 428 278 0
-277 -428 243 0
278 429 -279 0
278 -429 -287 0
-278 -429 287 0
-278 429 279 0
279 430 -280 0
279 -430 -284 0
-279 -430 284 0
-279 430 280 0
280 431 -281 0
280 -431 -283 0
-280 -431 283 0
-280 431 281 0
281 -432 -257 0
281 432 -282 0
-281 432 282 0
-281 -432 257 0
282 -93 258 0
-282 93 0
-282 -258 0
283 432 -260 0
283 -432 -262 0
-283 -432 262 0
-283 432 260 0
284 431 -285 0
284 -431 -286 0
-284 -431 286 0
-284 431 285 0
285 432 -263 0
285 -432 -266 0
-285 -432 266 0
-285 432 263 0
286 432 -267 0
286 -432 -269 0
-286 -432 269 0
-286 432 267 0
287 -430 -232 0
287 430 -288 0
-287 430 288 0
-287 -430 232 0
288 431 -289 0
288 -431 -290 0
-288 -431 290 0
-288 431 289 0
289 432 -270 0
289 -432 -274 0
-289 -432 274 0
-289 432 270 0
290 -432 -149 0
290 432 -275 0
-290 432 275 0
-290 -432 149 0
291 -428 125 -292 0
291 428 -292 293 0
-291 292 0
-291 428 -293 0
-291 -428 -125 0
292 -381 428 0
292 -381 429 430 0
-292 381 0
-292 -428 -429 0
-292 -428 -430 0
293 -429 -200 0
293 429 -294 0
-293 429 294 0
-293 -429 200 0
294 -430 -147 0
294 430 -295 0
-294 430 295 0
-294 -430 147 0
295 431 -268 0
295 -431 -273 0
-295 -431 273 0
-295 431 268 0
-296 297 307 -317 0
-296 297 307 316 0
296 -297 0
296 -307 0
296 -316 317 0
297 -370 428 298 0
297 -370 229 298 0
-297 370 0
-297 -298 0
-297 -428 -229 0
298 -428 -230 0
298 428 -299 0
-298 428 299 0
-298 -428 230 0
299 429 -300 0
299 -429 -306 0
-299 -429 306 0
-299 429 300 0
300 -430 -280 0
300 430 -301 0
-300 430 301 0
-300 -430 280 0
301 431 -302 0
301 -431 -303 0
-301 -431 303 0
-301 431 302 0
302 -432 -142 258 0
302 432 -156 258 0
-302 -258 0
-302 -432 142 0
-302 432 156 0
303 432 -304 0
303 -432 -305 0
-303 -432 305 0
-303 432 304 0
304 -46 258 0
-304 46 0
-304 -258 0
305 -74 258 0
-305 74 0
-305 -258 0
306 430 -284 0
306 -430 -288 0
-306 -430 288 0
-306 430 284 0
307 -372 428 308 0
307 -372 188 308 0
-307 372 0
-307 -308 0
-307 -428 -188 0
308 -428 -189 0
308 428 -309 0
-308 428 309 0
-308 -428 189 0
309 429 -310 0
309 -429 -313 0
-309 -429 313 0
-309 429 310 0
310 430 -311 0
310 -430 -312 0
-310 -430 312 0
-310 430 311 0
311 -431 -281 0
311 431 -303 0
-311 431 303 0
-311 -431 281 0
312 431 -283 0
312 -431 -285 0
-312 -431 285 0
-312 431 283 0
313 430 -314 0
313 -430 -315 0
-313 -430 315 0
-313 430 314 0
314 431 -286 0
314 -431 -289 0
-314 -431 289 0
-314 431 286 0
315 -431 -233 0
315 431 -290 0
-315 431 290 0
-315 -431 233 0
316 -382 239 0
316 -382 428 0
-316 382 0
-316 -428 -239 0
317 -428 -236 0
317 428 -318 0
-317 428 318 0
-317 -428 236 0
318 -429 -244 0
318 429 -287 0
-318 429 287 0
-318 -429 244 0
-319 320 325 330 339 0
319 -339 0
319 -330 0
319 -320 0
319 -325 0
320 -379 428 322 0
320 -379 321 322 0
-320 379 0
-320 -322 0
-320 -428 -321 0
-321 429 431 0
-321 429 430 0
321 -429 0
321 -430 -431 0
322 -428 -132 0
322 428 -323 0
-322 428 323 0
-322 -428 132 0
323 -429 -225 0
323 429 -324 0
-323 429 324 0
-323 -429 225 0
324 430 -264 0
324 -430 -272 0
-324 -430 272 0
-324 430 264 0
325 -377 429 326 0
325 -377 428 326 0
-325 -326 0
-325 377 0
-325 -428 -429 0
-326 151 327 0
-326 176 327 0
326 -327 0
326 -151 -176 0
327 428 429 -328 0
327 428 -429 -146 0
-327 -428 0
-327 -429 146 0
-327 429 328 0
328 -430 -295 0
328 430 -329 0
-328 430 329 0
-328 -430 295 0
329 431 -261 0
329 -431 -265 0
-329 -431 265 0
-329 431 261 0
330 -369 428 331 0
330 -369 -428 145 0
-330 369 0
-330 -428 -145 0
-330 428 -331 0
331 -429 -328 0
331 429 -332 0
-331 429 332 0
-331 -429 328 0
332 430 -333 0
332 -430 -337 0
-332 -430 337 0
-332 430 333 0
333 -431 -334 0
333 431 -336 0
-333 -431 334 0
-333 431 336 0
334 432 -335 0
334 -432 -304 0
-334 -432 304 0
-334 432 335 0
335 -142 258 0
-335 142 0
-335 -258 0
-336 -258 0
-336 150 156 0
-336 432 150 0
336 -150 258 0
336 -432 -156 258 0
337 -431 -256 0
337 431 -338 0
-337 431 338 0
-337 -431 256 0
338 -432 -282 0
338 432 -305 0
-338 432 305 0
-338 -432 282 0
339 -384 428 340 0
339 -384 218 340 0
-339 384 0
-339 -340 0
-339 -428 -218 0
340 -428 -216 0
340 428 -341 0
-340 428 341 0
-340 -428 216 0
341 -429 -212 0
341 429 -342 0
-341 429 342 0
-341 -429 212 0
342 -430 -191 0
342 430 -315 0
-342 430 315 0
-342 -430 191 0
-343 344 347 -352 0
-343 344 347 350 0
343 -344 0
343 -347 0
343 -350 352 0
344 -380 428 345 0
344 -380 124 345 0
-344 380 0
-344 -345 0
-344 -428 -124 0
345 -428 -18 0
345 428 -346 0
-345 428 346 0
-345 -428 18 0
346 -429 -190 0
346 429 -313 0
-346 429 313 0
-346 -429 190 0
347 -378 428 348 0
347 -378 207 348 0
-347 378 0
-347 -348 0
-347 -428 -207 0
348 -428 -202 0
348 428 -349 0
-348 428 349 0
-348 -428 202 0
349 -429 -231 0
349 429 -306 0
-349 429 306 0
-349 -429 231 0
350 -383 351 0
350 -383 428 0
-350 383 0
-350 -428 -351 0
-351 429 430 431 0
351 -429 0
351 -431 0
351 -430 0
352 -428 -219 0
352 428 -353 0
-352 428 353 0
-352 -428 219 0
353 -429 -247 0
353 429 -271 0
-353 429 271 0
-353 -429 247 0
-354 355 359 -366 0
-354 355 359 365 0
354 -355 0
354 -359 0
354 -365 366 0
355 -376 428 356 0
355 -376 210 356 0
-355 376 0
-355 -356 0
-355 -428 -210 0
356 -428 -211 0
356 428 -357 0
-356 428 357 0
-356 -428 211 0
357 -429 -342 0
357 429 -358 0
-357 429 358 0
-357 -429 342 0
358 430 -312 0
358 -430 -314 0
-358 -430 314 0
-358 430 312 0
359 -371 428 361 0
359 -371 360 361 0
-359 371 0
-359 -361 0
-359 -428 -360 0
360 -429 -430 -431 0
-360 429 0
-360 430 0
-360 431 0
361 -428 -224 0
361 428 -362 0
-361 428 362 0
-361 -428 224 0
362 -429 -324 0
362 429 -363 0
-362 429 363 0
-362 -429 324 0
363 -430 -255 0
363 430 -364 0
-363 430 364 0
-363 -430 255 0
364 431 -334 0
364 -431 -338 0
-364 -431 338 0
-364 431 334 0
365 -373 430 0
365 -373 428 0
365 -373 429 0
-365 373 0
-365 -428 -429 -430 0
366 -428 -199 0
366 428 -367 0
-366 428 367 0
-366 -428 199 0
367 -429 -294 0
367 429 -368 0
-367 429 368 0
-367 -429 294 0
368 -430 -329 0
368 430 -337 0
-368 430 337 0
-368 -430 329 0
-433 0
2 0

